1039	653	774	1125	267	554	441	940	363	863
903	995	430	72	355	0	242	1077	711	1171
144	230	940	995	688	469	311	610	83	0
827	457	304	626	527	761	686	0	1003	940
363	824	524	0	98	686	591	757	268	186
1125	0	604	852	186	267	375	688	524	790
623	144	874	527	430	940	1039	94	777	1100
554	304	253	171	0	375	98	469	616	711
0	518	684	303	774	850	171	384	908	1003
303	375	1098	253	850	1039	761	554	457	610
